src/ARITHMETIC/SHIFTER/SLL/formal/config_prove/model/design_smt2.smt2
; SMT-LIBv2 description generated by Yosys 0.9+2406 (git sha1 000fd08198, g++ 9.3.0 -fPIC -Os)
; yosys-smt2-module sll
(declare-sort |sll_s| 0)
(declare-fun |sll_is| (|sll_s|) Bool)
; yosys-smt2-output o_RESULT 4
; yosys-smt2-wire o_RESULT 4
(declare-fun |sll#0| (|sll_s|) (_ BitVec 4)) ; \i_INPUT
(declare-fun |sll#1| (|sll_s|) (_ BitVec 2)) ; \i_SHIFT_AMOUNT
(define-fun |sll#2| ((state |sll_s|)) (_ BitVec 4) (bvshl (|sll#0| state) (concat #b00 (|sll#1| state)))) ; \o_RESULT
(define-fun |sll_n o_RESULT| ((state |sll_s|)) (_ BitVec 4) (|sll#2| state))
; yosys-smt2-input i_SHIFT_AMOUNT 2
; yosys-smt2-wire i_SHIFT_AMOUNT 2
(define-fun |sll_n i_SHIFT_AMOUNT| ((state |sll_s|)) (_ BitVec 2) (|sll#1| state))
; yosys-smt2-input i_INPUT 4
; yosys-smt2-wire i_INPUT 4
(define-fun |sll_n i_INPUT| ((state |sll_s|)) (_ BitVec 4) (|sll#0| state))
; yosys-smt2-wire fr_MOCK_RESULT 4
(define-fun |sll_n fr_MOCK_RESULT| ((state |sll_s|)) (_ BitVec 4) (|sll#2| state))
; yosys-smt2-assert 0 sll.v:58.46-59.37
(define-fun |sll_a 0| ((state |sll_s|)) Bool (or true (not true))) ; $assert$sll.v:58$9
(define-fun |sll_a| ((state |sll_s|)) Bool 
  (|sll_a 0| state)
)
(define-fun |sll_u| ((state |sll_s|)) Bool true)
(define-fun |sll_i| ((state |sll_s|)) Bool true)
(define-fun |sll_h| ((state |sll_s|)) Bool true)
(define-fun |sll_t| ((state |sll_s|) (next_state |sll_s|)) Bool true) ; end of module sll
; yosys-smt2-topmod sll
; end of yosys output
